NAME          DOVETAIL  
ROWS
 N  obj
 G  c1    
 G  c2
 L  c3
COLUMNS
    MARK0000  'MARKER'                 'INTORG'
    x1        obj                  1   c1                   1
    x1        c2                  -1
    x2        obj                 -2   c1                   1
    x2        c2                   1
    MARK0001  'MARKER'                 'INTEND'
RHS
    RHS       c1                   2   c2                   1
    RHS       c3                   3
BOUNDS
 LO BND       x1                   0
 LO BND       x2                   0
ENDATA